gen	cost
1	20510
2	20328
3	20205
4	20120
5	19993
6	19966
7	19926
8	19684
9	19655
10	19605
11	19530
12	19484
13	19449
14	19430
15	19416
16	19361
17	19345
18	19328
19	19319
20	19312
21	19308
22	19308
23	19308
24	19308
25	19308
26	19305
27	19305
28	19305
29	19305
30	19305
31	19305
32	19297
33	19297
34	19295
35	19295
36	19295
37	19295
38	19295
39	19295
40	19295
41	19295
42	19295
43	19295
44	19295
45	19295
46	19295
47	19295
48	19295
49	19295
50	19295

